{'code': [10, 12, 7, 13, 6, 7, 7, 4, 8, 2, 6, 14, 16, 1, 11, 18, 1, 12, 17, 11, 14, 10, 19, 13, 10, 
2, 1, 5, 9, 17, 15, 16, 3, 8, 1, 18, 9, 7, 14, 0, 4, 5, 2, 18, 4, 14, 11, 9, 1, 3, 9, 16, 3, 7, 17, 
14, 12, 2, 1, 9, 19, 14, 6, 10, 14, 14, 6, 0, 8, 7, 16, 19, 6, 15, 15, 0, 15, 1, 19, 13, 19, 4, 16, 
16, 9, 2, 15, 17, 3, 16, 5, 5, 6, 8, 13, 6, 18, 3, 0, 4, 10, 4, 12, 9, 14, 0, 2, 19, 8, 0, 4, 2, 19,
 15, 7, 9, 13, 0, 12, 14, 3, 3, 3, 8, 16, 13, 1, 6, 11, 6, 12, 18, 8, 11, 11, 6, 14, 5, 13, 4, 10, 4
, 6, 19, 11, 10, 12, 8, 8, 9, 17, 18, 3, 1, 7, 3, 0, 7, 15, 2, 15, 2, 15, 5, 13, 10, 9, 1, 15, 15, 1
2, 19, 4, 15, 5, 12, 5, 6, 15, 11, 7, 18, 1, 12, 4, 17, 13, 12, 6, 1, 19, 18, 5, 9, 16, 16, 2, 18, 0
, 9, 0, 19, 7, 17, 11, 2, 10, 16, 17, 18, 13, 16, 0, 1, 10, 11, 17, 4, 0, 17, 7, 18, 5, 18, 11, 8, 1
9, 15, 8, 7, 14, 6, 5, 4, 4, 3, 16, 18, 17, 19], 'route': None, 'mac': [[0, 7, 7, 0, 1, 8, 6, 0, 8, 
3, 1, 6], [7, 4, 1, 7, 2, 0, 6, 0, 2, 0, 3, 3, 4], [6, 4, 9, 1, 8, 3, 0, 0, 4, 2, 2], [5, 0, 0, 7, 3
, 7, 3, 4, 2, 6, 0], [7, 3, 4, 4, 6, 9, 6, 7, 4, 9, 6, 4, 5, 4], [9, 9, 0, 2, 4, 5, 7, 7, 1, 6, 8], 
[7, 7, 4, 3, 0, 1, 1, 4, 8, 8, 1, 5, 3, 9], [0, 4, 4, 6, 8, 6, 6, 1, 5, 5, 0, 3, 3], [7, 1, 0, 3, 4,
 6, 5, 8, 8, 0, 7], [3, 0, 2, 1, 8, 6, 4, 0, 1, 1, 5, 0], [8, 4, 1, 3, 8, 4, 2, 2, 0, 3], [9, 3, 3, 
1, 6, 6, 1, 7, 3, 4, 1], [1, 2, 8, 4, 1, 3, 0, 7, 0, 0, 6], [4, 0, 9, 0, 1, 8, 3, 2, 6, 2], [0, 0, 1
, 5, 4, 8, 1, 9, 3, 2, 1, 6], [7, 0, 2, 8, 7, 6, 6, 9, 5, 1, 3, 4, 0, 9], [1, 8, 6, 7, 4, 4, 0, 6, 1
, 1, 2, 2, 0], [5, 8, 4, 9, 2, 2, 8, 1, 1, 7, 5], [2, 1, 2, 9, 1, 3, 3, 4, 4, 4, 1, 6, 4], [6, 1, 5,
 2, 4, 8, 4, 0, 7, 8, 1, 2, 9]], 'wok': None}
